0001 7
0002 2
0003 12
0004 11
0005 18
0006 10
0007 3
0008 10
0009 18
0010 6
0011 8
0012 4
0013 9
0014 8
0015 8
0016 15
0017 1
0018 3
0019 17
0020 14
0021 2
0022 11
0023 16
0024 12
0025 5
0026 5
0027 6
0028 7
0029 7
0030 4
0031 3
0032 13
0033 18
0034 9
0035 4
0036 6
0037 3
0038 1
0039 6
0040 8
0041 7
0042 9
0043 11
0044 4
0045 9
0046 2
0047 1
0048 8
0049 3
0050 12
0051 17
0052 9
0053 10
0054 13
0055 15
0056 14
0057 7
0058 16
0059 1
0060 5
0061 3
0062 9
0063 5
0064 6
0065 12
0066 5
0067 2
0068 11
0069 10
0070 18
0071 8
0072 5
0073 9
0074 10
0075 2
0076 3
0077 11
0078 4
0079 12
0080 1
0081 10
